certificates/rado_a10_c72_N19.cnf
c Rad2 upper bound instance: x1 + 10*x2 - x3 = 72, interval [1,19]
p cnf 19 72
1 8 9 0
-1 -8 -9 0
1 9 19 0
-1 -9 -19 0
2 8 10 0
-2 -8 -10 0
1 3 7 0
-1 -3 -7 0
3 8 11 0
-3 -8 -11 0
2 4 7 0
-2 -4 -7 0
4 8 12 0
-4 -8 -12 0
3 5 7 0
-3 -5 -7 0
5 8 13 0
-5 -8 -13 0
4 6 7 0
-4 -6 -7 0
6 8 14 0
-6 -8 -14 0
5 7 0
-5 -7 0
7 8 15 0
-7 -8 -15 0
6 7 8 0
-6 -7 -8 0
8 16 0
-8 -16 0
7 9 0
-7 -9 0
8 9 17 0
-8 -9 -17 0
7 8 10 0
-7 -8 -10 0
8 10 18 0
-8 -10 -18 0
7 9 11 0
-7 -9 -11 0
8 11 19 0
-8 -11 -19 0
7 10 12 0
-7 -10 -12 0
1 6 13 0
-1 -6 -13 0
7 11 13 0
-7 -11 -13 0
2 6 14 0
-2 -6 -14 0
7 12 14 0
-7 -12 -14 0
3 6 15 0
-3 -6 -15 0
7 13 15 0
-7 -13 -15 0
4 6 16 0
-4 -6 -16 0
7 14 16 0
-7 -14 -16 0
5 6 17 0
-5 -6 -17 0
7 15 17 0
-7 -15 -17 0
6 18 0
-6 -18 0
7 16 18 0
-7 -16 -18 0
6 7 19 0
-6 -7 -19 0
7 17 19 0
-7 -17 -19 0
