certificates/rado_a10_c72_N19.drat
-17 6 -19 0
6 -19 0
d -17 6 -19 0
-6 -19 0
d -6 -7 -19 0
-19 0
17 0
-1 -7 0
d -3 -1 -7 0
9 0
-7 0
-8 0
5 0
6 0
15 0
16 0
10 0
11 0
0
